17	4
33	34	38	34	
0	0	0	0	0	3	2	3	4	
1	6	3	1	6	3	7	14	17	
2	6	5	9	6	2	6	9	
6	4	9	5	7	3	5	13	17	
3	9	2	5	10	3	6	8	10	
50	3	5	6	9	3	17	17	17	
250	7	7	3	1	3	11	17	17	
175	9	9	9	8	3	12	15	16	
75	2	8	1	5	3	17	17	17	
100	4	6	9	9	2	14	15	
125	8	5	5	9	3	15	16	17	
50	3	8	6	5	2	17	17	
2	9	4	4	8	3	16	17	17	
7	2	9	4	8	3	17	17	17	
1	5	8	2	1	1	17	
4	3	1	9	6	2	17	17	
0	0	0	0	0	0	
